
Gurobi 7.5.1 (win64, Python) logging started 09/28/17 17:14:27

Academic license - for non-commercial use only
Optimize a model with 38 rows, 56 columns and 94 nonzeros
Coefficient statistics:
  Matrix range     [1e+00, 1e+00]
  Objective range  [2e+01, 4e+02]
  Bounds range     [0e+00, 0e+00]
  RHS range        [2e+01, 2e+02]
Presolve removed 31 rows and 46 columns
Presolve time: 0.00s
Presolved: 7 rows, 10 columns, 20 nonzeros

Iteration    Objective       Primal Inf.    Dual Inf.      Time
       0    0.0000000e+00   3.712500e+01   0.000000e+00      0s
       8    0.0000000e+00   0.000000e+00   0.000000e+00      0s

Solved in 8 iterations and 0.00 seconds
Optimal objective  0.000000000e+00
